benchmarks/bfuzz0/11519110451558926203417321791481923816.smt2
(set-logic QF_FP)
(declare-const x0 (_ FloatingPoint 8 24))
(declare-const x1 (_ FloatingPoint 8 24))
(declare-const x2 (_ FloatingPoint 8 24))
(declare-const x3 (_ FloatingPoint 8 24))
(declare-const x4 (_ FloatingPoint 8 24))
(declare-const x5 (_ FloatingPoint 8 24))
(declare-const x6 (_ FloatingPoint 8 24))
(declare-const x7 (_ FloatingPoint 8 24))
(assert (fp.eq (fp.add RNE (fp.sub RNE (fp.mul RNE x2 x1) (fp.mul RNE x7 x2)) (fp.div RNE (fp.neg x2) (fp.mul RNE x4 x0))) (fp.neg (fp.mul RNE (fp.sub RNE x3 x3) (fp.mul RNE x3 x5)))))
(check-sat)
