db/data/11519110451558926203417321791481923816.z3.out
sat
-------------------
30.390447177
